tsp_instances/TSP20/instance69.tsp
NODE_COORD_SECTION
0 139 160
1 71 102
2 54 176
3 137 185
4 66 50
5 104 12
6 103 64
7 12 49
8 188 196
9 155 191
10 144 44
11 173 56
12 122 175
13 70 48
14 147 133
15 21 78
16 170 131
17 66 140
18 156 149
19 183 189
