tsp_instances/TSP20/instance69.opt.tour
TOUR_SECTION
1
19
15
17
12
11
6
7
14
5
8
16
2
18
3
13
4
10
9
20
-1